c Reduced graph for 3-FullIns_3_1 generated by Cyril Grelier
p edge 38 127
e 1 2
e 1 3
e 1 4
e 1 7
e 1 8
e 1 9
e 1 15
e 1 16
e 1 22
e 1 23
e 1 24
e 1 25
e 1 26
e 1 31
e 1 32
e 2 13
e 2 14
e 2 19
e 2 20
e 2 21
e 2 26
e 2 27
e 2 28
e 2 31
e 2 32
e 2 35
e 2 36
e 2 37
e 2 38
e 3 6
e 3 10
e 3 11
e 3 12
e 3 14
e 3 17
e 3 18
e 3 19
e 3 20
e 3 21
e 3 27
e 3 28
e 4 5
e 4 10
e 4 11
e 4 12
e 4 13
e 4 19
e 4 20
e 4 21
e 4 29
e 4 30
e 4 35
e 4 36
e 5 6
e 5 7
e 5 8
e 5 9
e 5 10
e 5 11
e 5 12
e 5 15
e 5 16
e 5 17
e 5 18
e 6 7
e 6 8
e 6 9
e 6 10
e 6 11
e 6 12
e 6 22
e 6 23
e 6 29
e 6 30
e 7 11
e 7 12
e 7 13
e 7 14
e 7 20
e 7 21
e 8 10
e 8 12
e 8 13
e 8 14
e 8 19
e 8 21
e 9 10
e 9 11
e 9 13
e 9 14
e 9 19
e 9 20
e 10 11
e 10 12
e 11 12
e 13 15
e 13 16
e 14 22
e 14 23
e 15 30
e 15 34
e 15 36
e 15 38
e 16 29
e 16 33
e 16 35
e 16 37
e 17 23
e 17 25
e 17 30
e 17 34
e 18 22
e 18 24
e 18 29
e 18 33
e 22 28
e 23 27
e 24 28
e 24 34
e 24 38
e 25 27
e 25 33
e 25 37
e 26 31
e 26 32
e 31 32
e 33 34
